(set-info :smt-lib-version 2.6)
(set-logic QF_AUFBV)
(set-info :source |These benchmarks are derived from a semi-automated proof of functional equivalence between two implementations of an Elliptic Curve Digital Signature Algorithm (ECDSA). More information about problem they encode can be found here: http://cps-vo.org/node/3405|)
(set-info :category "industrial")
(set-info :status unsat)
(declare-fun x220 () (_ BitVec 1))
(declare-fun x218 () (_ BitVec 1))
(declare-fun x216 () (_ BitVec 1))
(declare-fun x214 () (_ BitVec 1))
(declare-fun x212 () (_ BitVec 1))
(declare-fun x210 () (_ BitVec 1))
(declare-fun x208 () (_ BitVec 1))
(declare-fun x206 () (_ BitVec 1))
(declare-fun x204 () (_ BitVec 1))
(declare-fun x202 () (_ BitVec 1))
(declare-fun x201 () (_ BitVec 1))
(declare-fun x200 () (_ BitVec 384))
(declare-fun x199 () (_ BitVec 384))
(declare-fun x198 () (_ BitVec 1))
(declare-fun x196 () (_ BitVec 1))
(declare-fun x194 () (_ BitVec 1))
(declare-fun x193 () (_ BitVec 1))
(declare-fun x192 () (_ BitVec 384))
(declare-fun x191 () (_ BitVec 1))
(declare-fun x189 () (_ BitVec 1))
(declare-fun x188 () (_ BitVec 1))
(declare-fun x186 () (_ BitVec 1))
(declare-fun x185 () (_ BitVec 1))
(declare-fun x184 () (_ BitVec 384))
(declare-fun x182 () (_ BitVec 1))
(declare-fun x180 () (_ BitVec 1))
(declare-fun x178 () (_ BitVec 1))
(declare-fun x176 () (_ BitVec 1))
(declare-fun x174 () (_ BitVec 1))
(declare-fun x172 () (_ BitVec 1))
(declare-fun x170 () (_ BitVec 1))
(declare-fun x169 () (_ BitVec 1))
(declare-fun x168 () (_ BitVec 384))
(declare-fun x167 () (_ BitVec 1))
(declare-fun x165 () (_ BitVec 1))
(declare-fun x163 () (_ BitVec 1))
(declare-fun x162 () (_ BitVec 1))
(declare-fun x161 () (_ BitVec 384))
(declare-fun x159 () (_ BitVec 1))
(declare-fun x157 () (_ BitVec 1))
(declare-fun x156 () (_ BitVec 1))
(declare-fun x154 () (_ BitVec 1))
(declare-fun x152 () (_ BitVec 1))
(declare-fun x151 () (_ BitVec 1))
(declare-fun x149 () (_ BitVec 1))
(declare-fun x147 () (_ BitVec 1))
(declare-fun x146 () (_ BitVec 1))
(declare-fun x145 () (_ BitVec 1))
(declare-fun x143 () (_ BitVec 1))
(declare-fun x141 () (_ BitVec 1))
(declare-fun x139 () (_ BitVec 1))
(declare-fun x137 () (_ BitVec 1))
(declare-fun x136 () (_ BitVec 1))
(declare-fun x135 () (_ BitVec 384))
(declare-fun x134 () (_ BitVec 1))
(declare-fun x132 () (_ BitVec 1))
(declare-fun x130 () (_ BitVec 1))
(declare-fun x129 () (_ BitVec 1))
(declare-fun x127 () (_ BitVec 1))
(declare-fun x126 () (_ BitVec 1))
(declare-fun x125 () (_ BitVec 384))
(declare-fun x123 () (_ BitVec 1))
(declare-fun x121 () (_ BitVec 1))
(declare-fun x120 () (_ BitVec 1))
(declare-fun x118 () (_ BitVec 1))
(declare-fun x116 () (_ BitVec 1))
(declare-fun x114 () (_ BitVec 1))
(declare-fun x112 () (_ BitVec 1))
(declare-fun x110 () (_ BitVec 1))
(declare-fun x108 () (_ BitVec 1))
(declare-fun x106 () (_ BitVec 1))
(declare-fun x104 () (_ BitVec 1))
(declare-fun x103 () (_ BitVec 1))
(declare-fun x102 () (_ BitVec 384))
(declare-fun x101 () (_ BitVec 1))
(declare-fun x99 () (_ BitVec 1))
(declare-fun x98 () (_ BitVec 1))
(declare-fun x97 () (_ BitVec 384))
(declare-fun x96 () (_ BitVec 1152))
(declare-fun x95 ((_ BitVec 1152)) (_ BitVec 1152))
(declare-fun x94 () (_ BitVec 1152))
(declare-fun x93 () (_ BitVec 384))
(declare-fun x92 () (_ BitVec 384))
(declare-fun x91 () (_ BitVec 384))
(declare-fun x90 () (_ BitVec 384))
(declare-fun x88 () (_ BitVec 1))
(declare-fun x86 () (_ BitVec 1))
(declare-fun x85 () (_ BitVec 1))
(declare-fun x83 () (_ BitVec 1))
(declare-fun x82 () (_ BitVec 1))
(declare-fun x81 () (_ BitVec 384))
(declare-fun x80 () (_ BitVec 384))
(declare-fun x79 () (_ BitVec 384))
(declare-fun x77 () (_ BitVec 1))
(declare-fun x75 () (_ BitVec 1))
(declare-fun x74 () (_ BitVec 1))
(declare-fun x73 () (_ BitVec 1))
(declare-fun x71 () (_ BitVec 1))
(declare-fun x69 () (_ BitVec 1))
(declare-fun x67 () (_ BitVec 1))
(declare-fun x65 () (_ BitVec 1))
(declare-fun x64 () (_ BitVec 1))
(declare-fun x63 () (_ BitVec 1))
(declare-fun x61 () (_ BitVec 1))
(declare-fun x59 () (_ BitVec 1))
(declare-fun x57 () (_ BitVec 1))
(declare-fun x55 () (_ BitVec 1))
(declare-fun x54 () (_ BitVec 1))
(declare-fun x52 () (_ BitVec 1))
(declare-fun x51 () (_ BitVec 1))
(declare-fun x50 () (_ BitVec 384))
(declare-fun x49 () (_ BitVec 384))
(declare-fun x48 () (_ BitVec 384))
(declare-fun x47 () (_ BitVec 384))
(declare-fun x46 () (_ BitVec 384))
(declare-fun x45 () (_ BitVec 384))
(declare-fun x44 () (_ BitVec 384))
(declare-fun x42 () (_ BitVec 1))
(declare-fun x41 () (_ BitVec 1))
(declare-fun x39 () (_ BitVec 1))
(declare-fun x37 () (_ BitVec 1))
(declare-fun x36 () (_ BitVec 1))
(declare-fun x35 () (_ BitVec 384))
(declare-fun x33 () (_ BitVec 1))
(declare-fun x32 () (_ BitVec 1))
(declare-fun x31 () (_ BitVec 384))
(declare-fun x30 ((_ BitVec 384) (_ BitVec 384)) (_ BitVec 384))
(declare-fun x29 () (_ BitVec 384))
(declare-fun x28 ((_ BitVec 384) (_ BitVec 384)) (_ BitVec 384))
(declare-fun x27 () (_ BitVec 384))
(declare-fun x26 ((_ BitVec 384)) (_ BitVec 384))
(declare-fun x25 () (_ BitVec 384))
(declare-fun x24 () (_ BitVec 384))
(declare-fun x23 () (_ BitVec 384))
(declare-fun x22 () (Array (_ BitVec 5) (_ BitVec 32)))
(declare-fun x21 () (Array (_ BitVec 4) (_ BitVec 32)))
(declare-fun x20 () (Array (_ BitVec 4) (_ BitVec 32)))
(declare-fun x19 () (Array (_ BitVec 5) (_ BitVec 32)))
(declare-fun x18 () (Array (_ BitVec 5) (_ BitVec 32)))
(declare-fun x17 () (Array (_ BitVec 5) (_ BitVec 32)))
(declare-fun x16 () (Array (_ BitVec 5) (_ BitVec 32)))
(declare-fun x15 () (Array (_ BitVec 5) (_ BitVec 32)))
(declare-fun x14 () (Array (_ BitVec 5) (_ BitVec 32)))
(declare-fun x13 () (Array (_ BitVec 5) (_ BitVec 32)))
(declare-fun x12 () (Array (_ BitVec 5) (_ BitVec 32)))
(declare-fun x11 () (Array (_ BitVec 5) (_ BitVec 32)))
(declare-fun x10 () (Array (_ BitVec 5) (_ BitVec 32)))
(declare-fun x9 () (Array (_ BitVec 5) (_ BitVec 32)))
(declare-fun x8 () (Array (_ BitVec 4) (_ BitVec 32)))
(declare-fun x7 () (Array (_ BitVec 4) (_ BitVec 32)))
(declare-fun x6 () (Array (_ BitVec 4) (_ BitVec 32)))
(declare-fun x5 () (Array (_ BitVec 5) (_ BitVec 32)))
(declare-fun x4 () (Array (_ BitVec 4) (_ BitVec 32)))
(declare-fun x3 () (Array (_ BitVec 4) (_ BitVec 32)))
(declare-fun x2 () (Array (_ BitVec 4) (_ BitVec 32)))
(declare-fun x1 () (Array (_ BitVec 4) (_ BitVec 32)))
(declare-fun x0 () (Array (_ BitVec 4) (_ BitVec 32)))
(declare-fun p221 () Bool)
(declare-fun p219 () Bool)
(declare-fun p217 () Bool)
(declare-fun p215 () Bool)
(declare-fun p213 () Bool)
(declare-fun p211 () Bool)
(declare-fun p209 () Bool)
(declare-fun p207 () Bool)
(declare-fun p205 () Bool)
(declare-fun p203 () Bool)
(declare-fun p197 () Bool)
(declare-fun p195 () Bool)
(declare-fun p190 () Bool)
(declare-fun p187 () Bool)
(declare-fun p183 () Bool)
(declare-fun p181 () Bool)
(declare-fun p179 () Bool)
(declare-fun p177 () Bool)
(declare-fun p175 () Bool)
(declare-fun p173 () Bool)
(declare-fun p171 () Bool)
(declare-fun p166 () Bool)
(declare-fun p164 () Bool)
(declare-fun p160 () Bool)
(declare-fun p158 () Bool)
(declare-fun p155 () Bool)
(declare-fun p153 () Bool)
(declare-fun p150 () Bool)
(declare-fun p148 () Bool)
(declare-fun p144 () Bool)
(declare-fun p142 () Bool)
(declare-fun p140 () Bool)
(declare-fun p138 () Bool)
(declare-fun p133 () Bool)
(declare-fun p131 () Bool)
(declare-fun p128 () Bool)
(declare-fun p124 () Bool)
(declare-fun p122 () Bool)
(declare-fun p119 () Bool)
(declare-fun p117 () Bool)
(declare-fun p115 () Bool)
(declare-fun p113 () Bool)
(declare-fun p111 () Bool)
(declare-fun p109 () Bool)
(declare-fun p107 () Bool)
(declare-fun p105 () Bool)
(declare-fun p100 () Bool)
(declare-fun p89 () Bool)
(declare-fun p87 () Bool)
(declare-fun p84 () Bool)
(declare-fun p78 () Bool)
(declare-fun p76 () Bool)
(declare-fun p72 () Bool)
(declare-fun p70 () Bool)
(declare-fun p68 () Bool)
(declare-fun p66 () Bool)
(declare-fun p62 () Bool)
(declare-fun p60 () Bool)
(declare-fun p58 () Bool)
(declare-fun p56 () Bool)
(declare-fun p53 () Bool)
(declare-fun p43 () Bool)
(declare-fun p40 () Bool)
(declare-fun p38 () Bool)
(declare-fun p34 () Bool)
(assert (= p221 (and p115 p219)))
(assert (= x220 (bvand x114 x218)))
(assert (= p219 (or p117 p217)))
(assert (= x218 (bvor x116 x216)))
(assert (= p217 (and p144 p215)))
(assert (= x216 (bvand x143 x214)))
(assert (= p215 (or (= x35 (_ bv0 384)) p213)))
(assert (= x214 (bvor x145 x212)))
(assert (= p213 (and p179 p211)))
(assert (= x212 (bvand x178 x210)))
(assert (= p211 (or p181 p209)))
(assert (= x210 (bvor x180 x208)))
(assert (= p209 (and p187 p207)))
(assert (= x208 (bvand x186 x206)))
(assert (= p207 (or (= x35 (_ bv0 384)) p205)))
(assert (= x206 (bvor x188 x204)))
(assert (= p205 (and p197 p203)))
(assert (= x204 (bvand x196 x202)))
(assert (= p203 (or (= x31 (_ bv0 384)) (= x199 x200))))
(assert (= x202 (bvor x198 x201)))
(assert (= x201 (ite (= x199 x200) (_ bv1 1) (_ bv0 1))))
(assert (= x200 (x28 x79 x80)))
(assert (= x199 ((_ extract 1151 768) x96)))
(assert (= x198 (ite (= x31 (_ bv0 384)) (_ bv1 1) (_ bv0 1))))
(assert (= p197 (or p190 p195)))
(assert (= x196 (bvor x189 x194)))
(assert (= p195 (or (= x50 (_ bv0 384)) (= x192 (_ bv0 384)))))
(assert (= x194 (bvor x191 x193)))
(assert (= x193 (ite (= x192 (_ bv0 384)) (_ bv1 1) (_ bv0 1))))
(assert (= x192 ((_ extract 1151 768) x96)))
(assert (= x191 (ite (= x50 (_ bv0 384)) (_ bv1 1) (_ bv0 1))))
(assert (= p190 (not (= x31 (_ bv0 384)))))
(assert (= x189 (bvnot x32)))
(assert (= x188 (ite (= x35 (_ bv0 384)) (_ bv1 1) (_ bv0 1))))
(assert (= p187 (or p183 (= x184 (_ bv1 384)))))
(assert (= x186 (bvor x182 x185)))
(assert (= x185 (ite (= x184 (_ bv1 384)) (_ bv1 1) (_ bv0 1))))
(assert (= x184 ((_ extract 1151 768) x96)))
(assert (= p183 (not (= x35 (_ bv0 384)))))
(assert (= x182 (bvnot x36)))
(assert (= p181 (and p56 p58)))
(assert (= x180 (bvand x55 x57)))
(assert (= p179 (or p153 p177)))
(assert (= x178 (bvor x152 x176)))
(assert (= p177 (and p155 p175)))
(assert (= x176 (bvand x154 x174)))
(assert (= p175 (or (= x35 (_ bv0 384)) p173)))
(assert (= x174 (bvor x156 x172)))
(assert (= p173 (and p166 p171)))
(assert (= x172 (bvand x165 x170)))
(assert (= p171 (or (= x31 (_ bv0 384)) (= (_ bv0 384) x168))))
(assert (= x170 (bvor x167 x169)))
(assert (= x169 (ite (= (_ bv0 384) x168) (_ bv1 1) (_ bv0 1))))
(assert (= x168 (x28 x79 x80)))
(assert (= x167 (ite (= x31 (_ bv0 384)) (_ bv1 1) (_ bv0 1))))
(assert (= p166 (or p158 p164)))
(assert (= x165 (bvor x157 x163)))
(assert (= p164 (or p160 (= (_ bv0 384) x161))))
(assert (= x163 (bvor x159 x162)))
(assert (= x162 (ite (= (_ bv0 384) x161) (_ bv1 1) (_ bv0 1))))
(assert (= x161 ((_ extract 1151 768) x96)))
(assert (= p160 (not (= x50 (_ bv0 384)))))
(assert (= x159 (bvnot x51)))
(assert (= p158 (not (= x31 (_ bv0 384)))))
(assert (= x157 (bvnot x32)))
(assert (= x156 (ite (= x35 (_ bv0 384)) (_ bv1 1) (_ bv0 1))))
(assert (= p155 (not (= x35 (_ bv0 384)))))
(assert (= x154 (bvnot x36)))
(assert (= p153 (or p150 (= x35 (_ bv0 384)))))
(assert (= x152 (bvor x149 x151)))
(assert (= x151 (ite (= x35 (_ bv0 384)) (_ bv1 1) (_ bv0 1))))
(assert (= p150 (or (= x50 (_ bv0 384)) p148)))
(assert (= x149 (bvor x146 x147)))
(assert (= p148 (not (= x31 (_ bv0 384)))))
(assert (= x147 (bvnot x32)))
(assert (= x146 (ite (= x50 (_ bv0 384)) (_ bv1 1) (_ bv0 1))))
(assert (= x145 (ite (= x35 (_ bv0 384)) (_ bv1 1) (_ bv0 1))))
(assert (= p144 (or p119 p142)))
(assert (= x143 (bvor x118 x141)))
(assert (= p142 (or (= x35 (_ bv0 384)) p140)))
(assert (= x141 (bvor x120 x139)))
(assert (= p140 (and p133 p138)))
(assert (= x139 (bvand x132 x137)))
(assert (= p138 (or (= x31 (_ bv0 384)) (= (_ bv1 384) x135))))
(assert (= x137 (bvor x134 x136)))
(assert (= x136 (ite (= (_ bv1 384) x135) (_ bv1 1) (_ bv0 1))))
(assert (= x135 (x28 x79 x80)))
(assert (= x134 (ite (= x31 (_ bv0 384)) (_ bv1 1) (_ bv0 1))))
(assert (= p133 (or p122 p131)))
(assert (= x132 (bvor x121 x130)))
(assert (= p131 (and p128 (= x50 (_ bv0 384)))))
(assert (= x130 (bvand x127 x129)))
(assert (= x129 (ite (= x50 (_ bv0 384)) (_ bv1 1) (_ bv0 1))))
(assert (= p128 (or p124 (= (_ bv1 384) x125))))
(assert (= x127 (bvor x123 x126)))
(assert (= x126 (ite (= (_ bv1 384) x125) (_ bv1 1) (_ bv0 1))))
(assert (= x125 ((_ extract 1151 768) x96)))
(assert (= p124 (not (= x50 (_ bv0 384)))))
(assert (= x123 (bvnot x51)))
(assert (= p122 (not (= x31 (_ bv0 384)))))
(assert (= x121 (bvnot x32)))
(assert (= x120 (ite (= x35 (_ bv0 384)) (_ bv1 1) (_ bv0 1))))
(assert (= p119 (not (= x35 (_ bv0 384)))))
(assert (= x118 (bvnot x36)))
(assert (= p117 (and p34 p38)))
(assert (= x116 (bvand x33 x37)))
(assert (= p115 (or p76 p113)))
(assert (= x114 (bvor x75 x112)))
(assert (= p113 (and p84 p111)))
(assert (= x112 (bvand x83 x110)))
(assert (= p111 (or (= x35 (_ bv0 384)) p109)))
(assert (= x110 (bvor x85 x108)))
(assert (= p109 (or p87 p107)))
(assert (= x108 (bvor x86 x106)))
(assert (= p107 (and p100 p105)))
(assert (= x106 (bvand x99 x104)))
(assert (= p105 (or (= x50 (_ bv0 384)) (= x102 (_ bv0 384)))))
(assert (= x104 (bvor x101 x103)))
(assert (= x103 (ite (= x102 (_ bv0 384)) (_ bv1 1) (_ bv0 1))))
(assert (= x102 (x28 x79 x80)))
(assert (= x101 (ite (= x50 (_ bv0 384)) (_ bv1 1) (_ bv0 1))))
(assert (= p100 (or p89 (= x90 x97))))
(assert (= x99 (bvor x88 x98)))
(assert (= x98 (ite (= x90 x97) (_ bv1 1) (_ bv0 1))))
(assert (= x97 ((_ extract 1151 768) x96)))
(assert (= x96 (x95 x94)))
(assert (= x94 (concat x93 (concat x92 x91))))
(assert (= x93 (concat (concat (concat (concat (concat (concat (concat (concat (concat (concat (concat (select x2 (_ bv11 4)) (select x2 (_ bv10 4))) (select x2 (_ bv9 4))) (select x2 (_ bv8 4))) (select x2 (_ bv7 4))) (select x2 (_ bv6 4))) (select x2 (_ bv5 4))) (select x2 (_ bv4 4))) (select x2 (_ bv3 4))) (select x2 (_ bv2 4))) (select x2 (_ bv1 4))) (select x2 (_ bv0 4)))))
(assert (= x92 (concat (concat (concat (concat (concat (concat (concat (concat (concat (concat (concat (select x3 (_ bv11 4)) (select x3 (_ bv10 4))) (select x3 (_ bv9 4))) (select x3 (_ bv8 4))) (select x3 (_ bv7 4))) (select x3 (_ bv6 4))) (select x3 (_ bv5 4))) (select x3 (_ bv4 4))) (select x3 (_ bv3 4))) (select x3 (_ bv2 4))) (select x3 (_ bv1 4))) (select x3 (_ bv0 4)))))
(assert (= x91 (concat (concat (concat (concat (concat (concat (concat (concat (concat (concat (concat (select x4 (_ bv11 4)) (select x4 (_ bv10 4))) (select x4 (_ bv9 4))) (select x4 (_ bv8 4))) (select x4 (_ bv7 4))) (select x4 (_ bv6 4))) (select x4 (_ bv5 4))) (select x4 (_ bv4 4))) (select x4 (_ bv3 4))) (select x4 (_ bv2 4))) (select x4 (_ bv1 4))) (select x4 (_ bv0 4)))))
(assert (= x90 (x28 x79 x80)))
(assert (= p89 (not (= x50 (_ bv0 384)))))
(assert (= x88 (bvnot x51)))
(assert (= p87 (not (= x31 (_ bv0 384)))))
(assert (= x86 (bvnot x32)))
(assert (= x85 (ite (= x35 (_ bv0 384)) (_ bv1 1) (_ bv0 1))))
(assert (= p84 (or p78 (= x81 (_ bv1 384)))))
(assert (= x83 (bvor x77 x82)))
(assert (= x82 (ite (= x81 (_ bv1 384)) (_ bv1 1) (_ bv0 1))))
(assert (= x81 (x28 x79 x80)))
(assert (= x80 (x30 x23 x29)))
(assert (= x79 (concat (concat (concat (concat (concat (concat (concat (concat (concat (concat (concat (select x2 (_ bv11 4)) (select x2 (_ bv10 4))) (select x2 (_ bv9 4))) (select x2 (_ bv8 4))) (select x2 (_ bv7 4))) (select x2 (_ bv6 4))) (select x2 (_ bv5 4))) (select x2 (_ bv4 4))) (select x2 (_ bv3 4))) (select x2 (_ bv2 4))) (select x2 (_ bv1 4))) (select x2 (_ bv0 4)))))
(assert (= p78 (not (= x35 (_ bv0 384)))))
(assert (= x77 (bvnot x36)))
(assert (= p76 (or (= x31 (_ bv0 384)) (= x35 (_ bv0 384)))))
(assert (= x75 (bvor x73 x74)))
(assert (= x74 (ite (= x35 (_ bv0 384)) (_ bv1 1) (_ bv0 1))))
(assert (= x73 (ite (= x31 (_ bv0 384)) (_ bv1 1) (_ bv0 1))))
(assert (= p72 (or p62 p70)))
(assert (= x71 (bvor x61 x69)))
(assert (= p70 (and p66 p68)))
(assert (= x69 (bvand x65 x67)))
(assert (= p68 (not (= x35 (_ bv0 384)))))
(assert (= x67 (bvnot x36)))
(assert (= p66 (and (= x50 (_ bv0 384)) (= x31 (_ bv0 384)))))
(assert (= x65 (bvand x63 x64)))
(assert (= x64 (ite (= x31 (_ bv0 384)) (_ bv1 1) (_ bv0 1))))
(assert (= x63 (ite (= x50 (_ bv0 384)) (_ bv1 1) (_ bv0 1))))
(assert (= p62 (or p43 p60)))
(assert (= x61 (bvor x42 x59)))
(assert (= p60 (and p56 p58)))
(assert (= x59 (bvand x55 x57)))
(assert (= p58 (not (= x35 (_ bv0 384)))))
(assert (= x57 (bvnot x36)))
(assert (= p56 (and p53 (= x31 (_ bv0 384)))))
(assert (= x55 (bvand x52 x54)))
(assert (= x54 (ite (= x31 (_ bv0 384)) (_ bv1 1) (_ bv0 1))))
(assert (= p53 (not (= x50 (_ bv0 384)))))
(assert (= x52 (bvnot x51)))
(assert (= x51 (ite (= x50 (_ bv0 384)) (_ bv1 1) (_ bv0 1))))
(assert (= x50 (x30 x44 x49)))
(assert (= x49 (x28 x45 x48)))
(assert (= x48 (x28 x46 x47)))
(assert (= x47 (x26 x25)))
(assert (= x46 (concat (concat (concat (concat (concat (concat (concat (concat (concat (concat (concat (select x2 (_ bv11 4)) (select x2 (_ bv10 4))) (select x2 (_ bv9 4))) (select x2 (_ bv8 4))) (select x2 (_ bv7 4))) (select x2 (_ bv6 4))) (select x2 (_ bv5 4))) (select x2 (_ bv4 4))) (select x2 (_ bv3 4))) (select x2 (_ bv2 4))) (select x2 (_ bv1 4))) (select x2 (_ bv0 4)))))
(assert (= x45 (concat (concat (concat (concat (concat (concat (concat (concat (concat (concat (concat (select x0 (_ bv11 4)) (select x0 (_ bv10 4))) (select x0 (_ bv9 4))) (select x0 (_ bv8 4))) (select x0 (_ bv7 4))) (select x0 (_ bv6 4))) (select x0 (_ bv5 4))) (select x0 (_ bv4 4))) (select x0 (_ bv3 4))) (select x0 (_ bv2 4))) (select x0 (_ bv1 4))) (select x0 (_ bv0 4)))))
(assert (= x44 (concat (concat (concat (concat (concat (concat (concat (concat (concat (concat (concat (select x3 (_ bv11 4)) (select x3 (_ bv10 4))) (select x3 (_ bv9 4))) (select x3 (_ bv8 4))) (select x3 (_ bv7 4))) (select x3 (_ bv6 4))) (select x3 (_ bv5 4))) (select x3 (_ bv4 4))) (select x3 (_ bv3 4))) (select x3 (_ bv2 4))) (select x3 (_ bv1 4))) (select x3 (_ bv0 4)))))
(assert (= p43 (or p40 (= x35 (_ bv0 384)))))
(assert (= x42 (bvor x39 x41)))
(assert (= x41 (ite (= x35 (_ bv0 384)) (_ bv1 1) (_ bv0 1))))
(assert (= p40 (and p34 p38)))
(assert (= x39 (bvand x33 x37)))
(assert (= p38 (not (= x35 (_ bv0 384)))))
(assert (= x37 (bvnot x36)))
(assert (= x36 (ite (= x35 (_ bv0 384)) (_ bv1 1) (_ bv0 1))))
(assert (= x35 (concat (concat (concat (concat (concat (concat (concat (concat (concat (concat (concat (select x2 (_ bv11 4)) (select x2 (_ bv10 4))) (select x2 (_ bv9 4))) (select x2 (_ bv8 4))) (select x2 (_ bv7 4))) (select x2 (_ bv6 4))) (select x2 (_ bv5 4))) (select x2 (_ bv4 4))) (select x2 (_ bv3 4))) (select x2 (_ bv2 4))) (select x2 (_ bv1 4))) (select x2 (_ bv0 4)))))
(assert (= p34 (not (= x31 (_ bv0 384)))))
(assert (= x33 (bvnot x32)))
(assert (= x32 (ite (= x31 (_ bv0 384)) (_ bv1 1) (_ bv0 1))))
(assert (= x31 (x30 x23 x29)))
(assert (= x29 (x28 x24 x27)))
(assert (= x27 (x26 x25)))
(assert (= x25 (concat (concat (concat (concat (concat (concat (concat (concat (concat (concat (concat (select x2 (_ bv11 4)) (select x2 (_ bv10 4))) (select x2 (_ bv9 4))) (select x2 (_ bv8 4))) (select x2 (_ bv7 4))) (select x2 (_ bv6 4))) (select x2 (_ bv5 4))) (select x2 (_ bv4 4))) (select x2 (_ bv3 4))) (select x2 (_ bv2 4))) (select x2 (_ bv1 4))) (select x2 (_ bv0 4)))))
(assert (= x24 (concat (concat (concat (concat (concat (concat (concat (concat (concat (concat (concat (select x1 (_ bv11 4)) (select x1 (_ bv10 4))) (select x1 (_ bv9 4))) (select x1 (_ bv8 4))) (select x1 (_ bv7 4))) (select x1 (_ bv6 4))) (select x1 (_ bv5 4))) (select x1 (_ bv4 4))) (select x1 (_ bv3 4))) (select x1 (_ bv2 4))) (select x1 (_ bv1 4))) (select x1 (_ bv0 4)))))
(assert (= x23 (concat (concat (concat (concat (concat (concat (concat (concat (concat (concat (concat (select x4 (_ bv11 4)) (select x4 (_ bv10 4))) (select x4 (_ bv9 4))) (select x4 (_ bv8 4))) (select x4 (_ bv7 4))) (select x4 (_ bv6 4))) (select x4 (_ bv5 4))) (select x4 (_ bv4 4))) (select x4 (_ bv3 4))) (select x4 (_ bv2 4))) (select x4 (_ bv1 4))) (select x4 (_ bv0 4)))))
(assert true)
(assert (= (select x22 (_ bv31 5)) (_ bv0 32)))
(assert (= (select x22 (_ bv30 5)) (_ bv0 32)))
(assert (= (select x22 (_ bv29 5)) (_ bv0 32)))
(assert (= (select x22 (_ bv28 5)) (_ bv0 32)))
(assert (= (select x22 (_ bv27 5)) (_ bv0 32)))
(assert (= (select x22 (_ bv26 5)) (_ bv0 32)))
(assert (= (select x22 (_ bv25 5)) (_ bv0 32)))
(assert (= (select x22 (_ bv24 5)) (_ bv0 32)))
(assert (= (select x21 (_ bv15 4)) (_ bv0 32)))
(assert (= (select x21 (_ bv14 4)) (_ bv0 32)))
(assert (= (select x21 (_ bv13 4)) (_ bv0 32)))
(assert (= (select x21 (_ bv12 4)) (_ bv0 32)))
(assert (= (select x20 (_ bv15 4)) (_ bv0 32)))
(assert (= (select x20 (_ bv14 4)) (_ bv0 32)))
(assert (= (select x20 (_ bv13 4)) (_ bv0 32)))
(assert (= (select x20 (_ bv12 4)) (_ bv0 32)))
(assert (= (select x19 (_ bv31 5)) (_ bv0 32)))
(assert (= (select x19 (_ bv30 5)) (_ bv0 32)))
(assert (= (select x19 (_ bv29 5)) (_ bv0 32)))
(assert (= (select x19 (_ bv28 5)) (_ bv0 32)))
(assert (= (select x19 (_ bv27 5)) (_ bv0 32)))
(assert (= (select x19 (_ bv26 5)) (_ bv0 32)))
(assert (= (select x19 (_ bv25 5)) (_ bv0 32)))
(assert (= (select x19 (_ bv24 5)) (_ bv0 32)))
(assert (= (select x18 (_ bv31 5)) (_ bv0 32)))
(assert (= (select x18 (_ bv30 5)) (_ bv0 32)))
(assert (= (select x18 (_ bv29 5)) (_ bv0 32)))
(assert (= (select x18 (_ bv28 5)) (_ bv0 32)))
(assert (= (select x18 (_ bv27 5)) (_ bv0 32)))
(assert (= (select x18 (_ bv26 5)) (_ bv0 32)))
(assert (= (select x18 (_ bv25 5)) (_ bv0 32)))
(assert (= (select x18 (_ bv24 5)) (_ bv0 32)))
(assert (= (select x17 (_ bv31 5)) (_ bv0 32)))
(assert (= (select x17 (_ bv30 5)) (_ bv0 32)))
(assert (= (select x17 (_ bv29 5)) (_ bv0 32)))
(assert (= (select x17 (_ bv28 5)) (_ bv0 32)))
(assert (= (select x17 (_ bv27 5)) (_ bv0 32)))
(assert (= (select x17 (_ bv26 5)) (_ bv0 32)))
(assert (= (select x17 (_ bv25 5)) (_ bv0 32)))
(assert (= (select x17 (_ bv24 5)) (_ bv0 32)))
(assert (= (select x16 (_ bv31 5)) (_ bv0 32)))
(assert (= (select x16 (_ bv30 5)) (_ bv0 32)))
(assert (= (select x16 (_ bv29 5)) (_ bv0 32)))
(assert (= (select x16 (_ bv28 5)) (_ bv0 32)))
(assert (= (select x16 (_ bv27 5)) (_ bv0 32)))
(assert (= (select x16 (_ bv26 5)) (_ bv0 32)))
(assert (= (select x16 (_ bv25 5)) (_ bv0 32)))
(assert (= (select x16 (_ bv24 5)) (_ bv0 32)))
(assert (= (select x15 (_ bv31 5)) (_ bv0 32)))
(assert (= (select x15 (_ bv30 5)) (_ bv0 32)))
(assert (= (select x15 (_ bv29 5)) (_ bv0 32)))
(assert (= (select x15 (_ bv28 5)) (_ bv0 32)))
(assert (= (select x15 (_ bv27 5)) (_ bv0 32)))
(assert (= (select x15 (_ bv26 5)) (_ bv0 32)))
(assert (= (select x15 (_ bv25 5)) (_ bv0 32)))
(assert (= (select x15 (_ bv24 5)) (_ bv0 32)))
(assert (= (select x14 (_ bv31 5)) (_ bv0 32)))
(assert (= (select x14 (_ bv30 5)) (_ bv0 32)))
(assert (= (select x14 (_ bv29 5)) (_ bv0 32)))
(assert (= (select x14 (_ bv28 5)) (_ bv0 32)))
(assert (= (select x14 (_ bv27 5)) (_ bv0 32)))
(assert (= (select x14 (_ bv26 5)) (_ bv0 32)))
(assert (= (select x14 (_ bv25 5)) (_ bv0 32)))
(assert (= (select x14 (_ bv24 5)) (_ bv0 32)))
(assert (= (select x13 (_ bv31 5)) (_ bv0 32)))
(assert (= (select x13 (_ bv30 5)) (_ bv0 32)))
(assert (= (select x13 (_ bv29 5)) (_ bv0 32)))
(assert (= (select x13 (_ bv28 5)) (_ bv0 32)))
(assert (= (select x13 (_ bv27 5)) (_ bv0 32)))
(assert (= (select x13 (_ bv26 5)) (_ bv0 32)))
(assert (= (select x13 (_ bv25 5)) (_ bv0 32)))
(assert (= (select x13 (_ bv24 5)) (_ bv0 32)))
(assert (= (select x12 (_ bv31 5)) (_ bv0 32)))
(assert (= (select x12 (_ bv30 5)) (_ bv0 32)))
(assert (= (select x12 (_ bv29 5)) (_ bv0 32)))
(assert (= (select x12 (_ bv28 5)) (_ bv0 32)))
(assert (= (select x12 (_ bv27 5)) (_ bv0 32)))
(assert (= (select x12 (_ bv26 5)) (_ bv0 32)))
(assert (= (select x12 (_ bv25 5)) (_ bv0 32)))
(assert (= (select x12 (_ bv24 5)) (_ bv0 32)))
(assert (= (select x11 (_ bv31 5)) (_ bv0 32)))
(assert (= (select x11 (_ bv30 5)) (_ bv0 32)))
(assert (= (select x11 (_ bv29 5)) (_ bv0 32)))
(assert (= (select x11 (_ bv28 5)) (_ bv0 32)))
(assert (= (select x11 (_ bv27 5)) (_ bv0 32)))
(assert (= (select x11 (_ bv26 5)) (_ bv0 32)))
(assert (= (select x11 (_ bv25 5)) (_ bv0 32)))
(assert (= (select x11 (_ bv24 5)) (_ bv0 32)))
(assert (= (select x10 (_ bv31 5)) (_ bv0 32)))
(assert (= (select x10 (_ bv30 5)) (_ bv0 32)))
(assert (= (select x10 (_ bv29 5)) (_ bv0 32)))
(assert (= (select x10 (_ bv28 5)) (_ bv0 32)))
(assert (= (select x10 (_ bv27 5)) (_ bv0 32)))
(assert (= (select x10 (_ bv26 5)) (_ bv0 32)))
(assert (= (select x10 (_ bv25 5)) (_ bv0 32)))
(assert (= (select x10 (_ bv24 5)) (_ bv0 32)))
(assert (= (select x9 (_ bv31 5)) (_ bv0 32)))
(assert (= (select x9 (_ bv30 5)) (_ bv0 32)))
(assert (= (select x9 (_ bv29 5)) (_ bv0 32)))
(assert (= (select x9 (_ bv28 5)) (_ bv0 32)))
(assert (= (select x9 (_ bv27 5)) (_ bv0 32)))
(assert (= (select x9 (_ bv26 5)) (_ bv0 32)))
(assert (= (select x9 (_ bv25 5)) (_ bv0 32)))
(assert (= (select x9 (_ bv24 5)) (_ bv0 32)))
(assert (= (select x8 (_ bv15 4)) (_ bv0 32)))
(assert (= (select x8 (_ bv14 4)) (_ bv0 32)))
(assert (= (select x8 (_ bv13 4)) (_ bv0 32)))
(assert (= (select x8 (_ bv12 4)) (_ bv0 32)))
(assert (= (select x7 (_ bv15 4)) (_ bv0 32)))
(assert (= (select x7 (_ bv14 4)) (_ bv0 32)))
(assert (= (select x7 (_ bv13 4)) (_ bv0 32)))
(assert (= (select x7 (_ bv12 4)) (_ bv0 32)))
(assert (= (select x6 (_ bv15 4)) (_ bv0 32)))
(assert (= (select x6 (_ bv14 4)) (_ bv0 32)))
(assert (= (select x6 (_ bv13 4)) (_ bv0 32)))
(assert (= (select x6 (_ bv12 4)) (_ bv0 32)))
(assert (= (select x5 (_ bv31 5)) (_ bv0 32)))
(assert (= (select x5 (_ bv30 5)) (_ bv0 32)))
(assert (= (select x5 (_ bv29 5)) (_ bv0 32)))
(assert (= (select x5 (_ bv28 5)) (_ bv0 32)))
(assert (= (select x5 (_ bv27 5)) (_ bv0 32)))
(assert (= (select x5 (_ bv26 5)) (_ bv0 32)))
(assert (= (select x5 (_ bv25 5)) (_ bv0 32)))
(assert (= (select x5 (_ bv24 5)) (_ bv0 32)))
(assert (= (select x4 (_ bv15 4)) (_ bv0 32)))
(assert (= (select x4 (_ bv14 4)) (_ bv0 32)))
(assert (= (select x4 (_ bv13 4)) (_ bv0 32)))
(assert (= (select x4 (_ bv12 4)) (_ bv0 32)))
(assert (= (select x3 (_ bv15 4)) (_ bv0 32)))
(assert (= (select x3 (_ bv14 4)) (_ bv0 32)))
(assert (= (select x3 (_ bv13 4)) (_ bv0 32)))
(assert (= (select x3 (_ bv12 4)) (_ bv0 32)))
(assert (= (select x2 (_ bv15 4)) (_ bv0 32)))
(assert (= (select x2 (_ bv14 4)) (_ bv0 32)))
(assert (= (select x2 (_ bv13 4)) (_ bv0 32)))
(assert (= (select x2 (_ bv12 4)) (_ bv0 32)))
(assert (= (select x1 (_ bv15 4)) (_ bv0 32)))
(assert (= (select x1 (_ bv14 4)) (_ bv0 32)))
(assert (= (select x1 (_ bv13 4)) (_ bv0 32)))
(assert (= (select x1 (_ bv12 4)) (_ bv0 32)))
(assert (= (select x0 (_ bv15 4)) (_ bv0 32)))
(assert (= (select x0 (_ bv14 4)) (_ bv0 32)))
(assert (= (select x0 (_ bv13 4)) (_ bv0 32)))
(assert (= (select x0 (_ bv12 4)) (_ bv0 32)))
(assert (not (=> p72 p221)))
(check-sat)
(exit)
